NAME : amz2982.94588_91588.tour
COMMENT : Cost = 94588_91588
COMMENT : Found by LKH-AMZ [Keld Helsgaun] Sun May 11 15:25:42 2025
COMMENT : TW viol.: 0 #: 0
TYPE : TOUR
DIMENSION : 100
TOUR_SECTION
41
21
89
1
42
20
54
22
10
79
40
69
83
3
55
93
32
33
45
23
37
31
9
57
12
80
97
85
66
47
78
96
98
58
68
43
71
24
2
86
90
28
87
30
81
56
70
84
77
73
75
61
63
51
100
19
7
44
76
11
46
62
8
15
34
52
36
88
4
59
14
17
50
65
26
82
99
29
72
13
53
95
74
18
64
94
6
39
16
60
27
38
5
48
25
49
35
92
67
91
-1
EOF
